NPROCS=0
This instance is clustered!
Gurobi Optimizer version 9.0.0 build v9.0.0rc2 (linux64)
Optimize a model with 50 rows, 626 columns and 1250 nonzeros
Model fingerprint: 0x4b3522a4
Variable types: 1 continuous, 625 integer (625 binary)
Coefficient statistics:
  Matrix range     [1e+00, 1e+00]
  Objective range  [1e+00, 7e+02]
  Bounds range     [1e+00, 1e+00]
  RHS range        [1e+00, 1e+00]
Presolve removed 2 rows and 72 columns
Presolve time: 0.01s
Presolved: 48 rows, 554 columns, 1106 nonzeros
Variable types: 1 continuous, 553 integer (553 binary)

Root relaxation: objective 1.244950e+03, 38 iterations, 0.00 seconds

    Nodes    |    Current Node    |     Objective Bounds      |     Work
 Expl Unexpl |  Obj  Depth IntInf | Incumbent    BestBd   Gap | It/Node Time

     0     0 1305.65677    0    8          - 1305.65677      -     -    0s
     0     0 1596.24518    0   12          - 1596.24518      -     -    0s
     0     2 1596.24518    0   12          - 1596.24518      -     -    0s
 done with super cut 0
 done with super cut 1
 done with super cut 2
 done with super cut 3
 done with super cut 4
 done with super cut 5
 done with super cut 6
 done with super cut 7
 done with super cut 8
 done with super cut 9
 done with super cut 10
   261   238 1893.75846   19    9          - 1814.77231      -   6.3   30s
* 1056   883              43    2390.3055297 1824.14450  23.7%   7.0   30s
* 1840  1362              31    2375.3969440 1856.34787  21.9%   6.6   30s
H 1934  1305                    2130.1014642 1856.34787  12.9%   6.5   31s
H 1934  1240                    2040.1593577 1856.34787  9.01%   6.5   31s

Cutting planes:
  Gomory: 5
  Zero half: 2
  Lazy constraints: 77

Explored 6277 nodes (65651 simplex iterations) in 33.60 seconds
Thread count was 12 (of 12 available processors)

Solution count 4: 2040.16 2130.1 2375.4 2390.31 

Optimal solution found (tolerance 1.00e-04)
Best objective 2.040159357675e+03, best bound 2.040159357675e+03, gap 0.0000%

User-callback calls 14609, time in user-callback 30.46 sec
/projects/academic/josewalt/caigao/RRARP_BD/BendersDecomp/ret/model_outs/n_23_e_8_algo_4.out
 =====>>>>> Solution is written to file in <../ret/model_outs> !!!
===>> All Done!
